p cnf 351 1044
c weights 1.0 1.0 2.718281828459045 0.36787944117144233 2.718281828459045 0.36787944117144233 2.718281828459045 0.36787944117144233 2.718281828459045 0.36787944117144233 2.718281828459045 0.36787944117144233 2.718281828459045 0.36787944117144233 1.0 1.0 2.718281828459045 0.36787944117144233 2.718281828459045 0.36787944117144233 2.718281828459045 0.36787944117144233 2.718281828459045 0.36787944117144233 2.718281828459045 0.36787944117144233 2.718281828459045 0.36787944117144233 1.0 1.0 2.718281828459045 0.36787944117144233 2.718281828459045 0.36787944117144233 2.718281828459045 0.36787944117144233 2.718281828459045 0.36787944117144233 2.718281828459045 0.36787944117144233 2.718281828459045 0.36787944117144233 2.718281828459045 0.36787944117144233 2.718281828459045 0.36787944117144233 1.0 1.0 2.718281828459045 0.36787944117144233 2.718281828459045 0.36787944117144233 2.718281828459045 0.36787944117144233 2.718281828459045 0.36787944117144233 2.718281828459045 0.36787944117144233 2.718281828459045 0.36787944117144233 2.718281828459045 0.36787944117144233 2.718281828459045 0.36787944117144233 2.718281828459045 0.36787944117144233 2.718281828459045 0.36787944117144233 1.0 1.0 2.718281828459045 0.36787944117144233 2.718281828459045 0.36787944117144233 2.718281828459045 0.36787944117144233 2.718281828459045 0.36787944117144233 2.718281828459045 0.36787944117144233 2.718281828459045 0.36787944117144233 2.718281828459045 0.36787944117144233 1.0 1.0 2.718281828459045 0.36787944117144233 2.718281828459045 0.36787944117144233 2.718281828459045 0.36787944117144233 2.718281828459045 0.36787944117144233 2.718281828459045 0.36787944117144233 2.718281828459045 0.36787944117144233 1.0 1.0 2.718281828459045 0.36787944117144233 2.718281828459045 0.36787944117144233 2.718281828459045 0.36787944117144233 2.718281828459045 0.36787944117144233 2.718281828459045 0.36787944117144233 2.718281828459045 0.36787944117144233 2.718281828459045 0.36787944117144233 1.0 1.0 2.718281828459045 0.36787944117144233 2.718281828459045 0.36787944117144233 2.718281828459045 0.36787944117144233 2.718281828459045 0.36787944117144233 2.718281828459045 0.36787944117144233 1.0 1.0 2.718281828459045 0.36787944117144233 2.718281828459045 0.36787944117144233 2.718281828459045 0.36787944117144233 2.718281828459045 0.36787944117144233 2.718281828459045 0.36787944117144233 2.718281828459045 0.36787944117144233 2.718281828459045 0.36787944117144233 2.718281828459045 0.36787944117144233 1.0 1.0 2.718281828459045 0.36787944117144233 2.718281828459045 0.36787944117144233 2.718281828459045 0.36787944117144233 2.718281828459045 0.36787944117144233 1.0 1.0 2.718281828459045 0.36787944117144233 2.718281828459045 0.36787944117144233 2.718281828459045 0.36787944117144233 2.718281828459045 0.36787944117144233 2.718281828459045 0.36787944117144233 2.718281828459045 0.36787944117144233 1.0 1.0 2.718281828459045 0.36787944117144233 2.718281828459045 0.36787944117144233 2.718281828459045 0.36787944117144233 2.718281828459045 0.36787944117144233 2.718281828459045 0.36787944117144233 2.718281828459045 0.36787944117144233 2.718281828459045 0.36787944117144233 2.718281828459045 0.36787944117144233 1.0 1.0 2.718281828459045 0.36787944117144233 2.718281828459045 0.36787944117144233 2.718281828459045 0.36787944117144233 2.718281828459045 0.36787944117144233 2.718281828459045 0.36787944117144233 2.718281828459045 0.36787944117144233 1.0 1.0 2.718281828459045 0.36787944117144233 2.718281828459045 0.36787944117144233 2.718281828459045 0.36787944117144233 1.0 1.0 2.718281828459045 0.36787944117144233 2.718281828459045 0.36787944117144233 2.718281828459045 0.36787944117144233 2.718281828459045 0.36787944117144233 2.718281828459045 0.36787944117144233 2.718281828459045 0.36787944117144233 2.718281828459045 0.36787944117144233 1.0 1.0 2.718281828459045 0.36787944117144233 2.718281828459045 0.36787944117144233 2.718281828459045 0.36787944117144233 1.0 1.0 2.718281828459045 0.36787944117144233 2.718281828459045 0.36787944117144233 2.718281828459045 0.36787944117144233 2.718281828459045 0.36787944117144233 2.718281828459045 0.36787944117144233 1.0 1.0 2.718281828459045 0.36787944117144233 2.718281828459045 0.36787944117144233 2.718281828459045 0.36787944117144233 2.718281828459045 0.36787944117144233 2.718281828459045 0.36787944117144233 2.718281828459045 0.36787944117144233 2.718281828459045 0.36787944117144233 2.718281828459045 0.36787944117144233 1.0 1.0 2.718281828459045 0.36787944117144233 2.718281828459045 0.36787944117144233 1.0 1.0 2.718281828459045 0.36787944117144233 2.718281828459045 0.36787944117144233 2.718281828459045 0.36787944117144233 2.718281828459045 0.36787944117144233 1.0 1.0 2.718281828459045 0.36787944117144233 2.718281828459045 0.36787944117144233 2.718281828459045 0.36787944117144233 2.718281828459045 0.36787944117144233 2.718281828459045 0.36787944117144233 2.718281828459045 0.36787944117144233 2.718281828459045 0.36787944117144233 2.718281828459045 0.36787944117144233 1.0 1.0 2.718281828459045 0.36787944117144233 2.718281828459045 0.36787944117144233 2.718281828459045 0.36787944117144233 2.718281828459045 0.36787944117144233 1.0 1.0 2.718281828459045 0.36787944117144233 2.718281828459045 0.36787944117144233 2.718281828459045 0.36787944117144233 2.718281828459045 0.36787944117144233 2.718281828459045 0.36787944117144233 1.0 1.0 2.718281828459045 0.36787944117144233 2.718281828459045 0.36787944117144233 1.0 1.0 2.718281828459045 0.36787944117144233 2.718281828459045 0.36787944117144233 2.718281828459045 0.36787944117144233 2.718281828459045 0.36787944117144233 1.0 1.0 2.718281828459045 0.36787944117144233 2.718281828459045 0.36787944117144233 2.718281828459045 0.36787944117144233 1.0 1.0 2.718281828459045 0.36787944117144233 2.718281828459045 0.36787944117144233 2.718281828459045 0.36787944117144233 2.718281828459045 0.36787944117144233 2.718281828459045 0.36787944117144233 2.718281828459045 0.36787944117144233 1.0 1.0 1.0 1.0 2.718281828459045 0.36787944117144233 2.718281828459045 0.36787944117144233 2.718281828459045 0.36787944117144233 1.0 1.0 2.718281828459045 0.36787944117144233 2.718281828459045 0.36787944117144233 2.718281828459045 0.36787944117144233 1.0 1.0 2.718281828459045 0.36787944117144233 1.0 1.0 2.718281828459045 0.36787944117144233 2.718281828459045 0.36787944117144233 2.718281828459045 0.36787944117144233 2.718281828459045 0.36787944117144233 2.718281828459045 0.36787944117144233 1.0 1.0 2.718281828459045 0.36787944117144233 2.718281828459045 0.36787944117144233 2.718281828459045 0.36787944117144233 2.718281828459045 0.36787944117144233 2.718281828459045 0.36787944117144233 2.718281828459045 0.36787944117144233 1.0 1.0 2.718281828459045 0.36787944117144233 2.718281828459045 0.36787944117144233 2.718281828459045 0.36787944117144233 2.718281828459045 0.36787944117144233 1.0 1.0 2.718281828459045 0.36787944117144233 2.718281828459045 0.36787944117144233 2.718281828459045 0.36787944117144233 1.0 1.0 2.718281828459045 0.36787944117144233 1.0 1.0 2.718281828459045 0.36787944117144233 1.0 1.0 2.718281828459045 0.36787944117144233 2.718281828459045 0.36787944117144233 2.718281828459045 0.36787944117144233 2.718281828459045 0.36787944117144233 2.718281828459045 0.36787944117144233 2.718281828459045 0.36787944117144233 1.0 1.0 2.718281828459045 0.36787944117144233 2.718281828459045 0.36787944117144233 2.718281828459045 0.36787944117144233 2.718281828459045 0.36787944117144233 2.718281828459045 0.36787944117144233 1.0 1.0 2.718281828459045 0.36787944117144233 2.718281828459045 0.36787944117144233 2.718281828459045 0.36787944117144233 2.718281828459045 0.36787944117144233 2.718281828459045 0.36787944117144233 1.0 1.0 2.718281828459045 0.36787944117144233 2.718281828459045 0.36787944117144233 1.0 1.0 1.0 1.0 2.718281828459045 0.36787944117144233 2.718281828459045 0.36787944117144233 2.718281828459045 0.36787944117144233 2.718281828459045 0.36787944117144233 2.718281828459045 0.36787944117144233 2.718281828459045 0.36787944117144233 1.0 1.0 2.718281828459045 0.36787944117144233 2.718281828459045 0.36787944117144233 2.718281828459045 0.36787944117144233 1.0 1.0 2.718281828459045 0.36787944117144233 2.718281828459045 0.36787944117144233 2.718281828459045 0.36787944117144233 2.718281828459045 0.36787944117144233 1.0 1.0 2.718281828459045 0.36787944117144233 2.718281828459045 0.36787944117144233 2.718281828459045 0.36787944117144233 1.0 1.0 2.718281828459045 0.36787944117144233 2.718281828459045 0.36787944117144233 1.0 1.0 2.718281828459045 0.36787944117144233 2.718281828459045 0.36787944117144233 2.718281828459045 0.36787944117144233 2.718281828459045 0.36787944117144233 1.0 1.0 2.718281828459045 0.36787944117144233 2.718281828459045 0.36787944117144233 2.718281828459045 0.36787944117144233 1.0 1.0 2.718281828459045 0.36787944117144233 2.718281828459045 0.36787944117144233 1.0 1.0 1.0 1.0 2.718281828459045 0.36787944117144233 2.718281828459045 0.36787944117144233 1.0 1.0 2.718281828459045 0.36787944117144233 2.718281828459045 0.36787944117144233 2.718281828459045 0.36787944117144233 2.718281828459045 0.36787944117144233 2.718281828459045 0.36787944117144233 2.718281828459045 0.36787944117144233 1.0 1.0 2.718281828459045 0.36787944117144233 2.718281828459045 0.36787944117144233 2.718281828459045 0.36787944117144233 1.0 1.0 1.0 1.0 2.718281828459045 0.36787944117144233 2.718281828459045 0.36787944117144233 1.0 1.0 2.718281828459045 0.36787944117144233 2.718281828459045 0.36787944117144233 1.0 1.0 2.718281828459045 0.36787944117144233 2.718281828459045 0.36787944117144233 1.0 1.0 1.0 1.0 1.0 1.0 2.718281828459045 0.36787944117144233 1.0 1.0 2.718281828459045 0.36787944117144233 1.0 1.0 2.718281828459045 0.36787944117144233 2.718281828459045 0.36787944117144233 1.0 1.0 2.718281828459045 0.36787944117144233 1.0 1.0 2.718281828459045 0.36787944117144233 2.718281828459045 0.36787944117144233 1.0 1.0 2.718281828459045 0.36787944117144233 1.0 1.0 2.718281828459045 0.36787944117144233 1.0 1.0 1.0 1.0 2.718281828459045 0.36787944117144233 1.0 1.0 2.718281828459045 0.36787944117144233 1.0 1.0 2.718281828459045 0.36787944117144233 1.0 1.0 2.718281828459045 0.36787944117144233 2.718281828459045 0.36787944117144233 1.0 1.0 2.718281828459045 0.36787944117144233 2.718281828459045 0.36787944117144233 2.718281828459045 0.36787944117144233 1.0 1.0 2.718281828459045 0.36787944117144233 1.0 1.0 1.0 1.0 2.718281828459045 0.36787944117144233 1.0 1.0 2.718281828459045 0.36787944117144233 1.0 1.0 1.0 1.0 1.0 1.0 1.0 1.0 2.718281828459045 0.36787944117144233 1.0 1.0 1.0 1.0 1.0 1.0 1.0 1.0 1.0 1.0 1.0 1.0 1.0 1.0 1.0 1.0 1.0 1.0
2 1 78 0
2 -1 -78 0
-2 1 -78 0
-2 -1 78 0
3 1 135 0
3 -1 -135 0
-3 1 -135 0
-3 -1 135 0
4 1 140 0
4 -1 -140 0
-4 1 -140 0
-4 -1 140 0
5 1 196 0
5 -1 -196 0
-5 1 -196 0
-5 -1 196 0
6 1 308 0
6 -1 -308 0
-6 1 -308 0
-6 -1 308 0
7 1 347 0
7 -1 -347 0
-7 1 -347 0
-7 -1 347 0
9 8 229 0
9 -8 -229 0
-9 8 -229 0
-9 -8 229 0
10 8 246 0
10 -8 -246 0
-10 8 -246 0
-10 -8 246 0
11 8 255 0
11 -8 -255 0
-11 8 -255 0
-11 -8 255 0
12 8 278 0
12 -8 -278 0
-12 8 -278 0
-12 -8 278 0
13 8 290 0
13 -8 -290 0
-13 8 -290 0
-13 -8 290 0
14 8 299 0
14 -8 -299 0
-14 8 -299 0
-14 -8 299 0
16 15 78 0
16 -15 -78 0
-16 15 -78 0
-16 -15 78 0
17 15 160 0
17 -15 -160 0
-17 15 -160 0
-17 -15 160 0
18 15 163 0
18 -15 -163 0
-18 15 -163 0
-18 -15 163 0
19 15 180 0
19 -15 -180 0
-19 15 -180 0
-19 -15 180 0
20 15 259 0
20 -15 -259 0
-20 15 -259 0
-20 -15 259 0
21 15 299 0
21 -15 -299 0
-21 15 -299 0
-21 -15 299 0
22 15 327 0
22 -15 -327 0
-22 15 -327 0
-22 -15 327 0
23 15 348 0
23 -15 -348 0
-23 15 -348 0
-23 -15 348 0
25 24 64 0
25 -24 -64 0
-25 24 -64 0
-25 -24 64 0
26 24 196 0
26 -24 -196 0
-26 24 -196 0
-26 -24 196 0
27 24 203 0
27 -24 -203 0
-27 24 -203 0
-27 -24 203 0
28 24 250 0
28 -24 -250 0
-28 24 -250 0
-28 -24 250 0
29 24 308 0
29 -24 -308 0
-29 24 -308 0
-29 -24 308 0
30 24 336 0
30 -24 -336 0
-30 24 -336 0
-30 -24 336 0
31 24 340 0
31 -24 -340 0
-31 24 -340 0
-31 -24 340 0
32 24 344 0
32 -24 -344 0
-32 24 -344 0
-32 -24 344 0
33 24 346 0
33 -24 -346 0
-33 24 -346 0
-33 -24 346 0
34 24 349 0
34 -24 -349 0
-34 24 -349 0
-34 -24 349 0
36 35 140 0
36 -35 -140 0
-36 35 -140 0
-36 -35 140 0
37 35 154 0
37 -35 -154 0
-37 35 -154 0
-37 -35 154 0
38 35 196 0
38 -35 -196 0
-38 35 -196 0
-38 -35 196 0
39 35 300 0
39 -35 -300 0
-39 35 -300 0
-39 -35 300 0
40 35 310 0
40 -35 -310 0
-40 35 -310 0
-40 -35 310 0
41 35 349 0
41 -35 -349 0
-41 35 -349 0
-41 -35 349 0
42 35 350 0
42 -35 -350 0
-42 35 -350 0
-42 -35 350 0
44 43 179 0
44 -43 -179 0
-44 43 -179 0
-44 -43 179 0
45 43 235 0
45 -43 -235 0
-45 43 -235 0
-45 -43 235 0
46 43 262 0
46 -43 -262 0
-46 43 -262 0
-46 -43 262 0
47 43 267 0
47 -43 -267 0
-47 43 -267 0
-47 -43 267 0
48 43 299 0
48 -43 -299 0
-48 43 -299 0
-48 -43 299 0
49 43 345 0
49 -43 -345 0
-49 43 -345 0
-49 -43 345 0
51 50 117 0
51 -50 -117 0
-51 50 -117 0
-51 -50 117 0
52 50 208 0
52 -50 -208 0
-52 50 -208 0
-52 -50 208 0
53 50 239 0
53 -50 -239 0
-53 50 -239 0
-53 -50 239 0
54 50 274 0
54 -50 -274 0
-54 50 -274 0
-54 -50 274 0
55 50 303 0
55 -50 -303 0
-55 50 -303 0
-55 -50 303 0
56 50 310 0
56 -50 -310 0
-56 50 -310 0
-56 -50 310 0
57 50 336 0
57 -50 -336 0
-57 50 -336 0
-57 -50 336 0
59 58 160 0
59 -58 -160 0
-59 58 -160 0
-59 -58 160 0
60 58 184 0
60 -58 -184 0
-60 58 -184 0
-60 -58 184 0
61 58 336 0
61 -58 -336 0
-61 58 -336 0
-61 -58 336 0
62 58 349 0
62 -58 -349 0
-62 58 -349 0
-62 -58 349 0
63 58 350 0
63 -58 -350 0
-63 58 -350 0
-63 -58 350 0
65 64 85 0
65 -64 -85 0
-65 64 -85 0
-65 -64 85 0
66 64 160 0
66 -64 -160 0
-66 64 -160 0
-66 -64 160 0
67 64 172 0
67 -64 -172 0
-67 64 -172 0
-67 -64 172 0
68 64 214 0
68 -64 -214 0
-68 64 -214 0
-68 -64 214 0
69 64 259 0
69 -64 -259 0
-69 64 -259 0
-69 -64 259 0
70 64 274 0
70 -64 -274 0
-70 64 -274 0
-70 -64 274 0
71 64 289 0
71 -64 -289 0
-71 64 -289 0
-71 -64 289 0
72 64 324 0
72 -64 -324 0
-72 64 -324 0
-72 -64 324 0
74 73 190 0
74 -73 -190 0
-74 73 -190 0
-74 -73 190 0
75 73 320 0
75 -73 -320 0
-75 73 -320 0
-75 -73 320 0
76 73 336 0
76 -73 -336 0
-76 73 -336 0
-76 -73 336 0
77 73 339 0
77 -73 -339 0
-77 73 -339 0
-77 -73 339 0
79 78 160 0
79 -78 -160 0
-79 78 -160 0
-79 -78 160 0
80 78 229 0
80 -78 -229 0
-80 78 -229 0
-80 -78 229 0
81 78 308 0
81 -78 -308 0
-81 78 -308 0
-81 -78 308 0
82 78 338 0
82 -78 -338 0
-82 78 -338 0
-82 -78 338 0
83 78 343 0
83 -78 -343 0
-83 78 -343 0
-83 -78 343 0
84 78 345 0
84 -78 -345 0
-84 78 -345 0
-84 -78 345 0
86 85 180 0
86 -85 -180 0
-86 85 -180 0
-86 -85 180 0
87 85 238 0
87 -85 -238 0
-87 85 -238 0
-87 -85 238 0
88 85 289 0
88 -85 -289 0
-88 85 -289 0
-88 -85 289 0
89 85 300 0
89 -85 -300 0
-89 85 -300 0
-89 -85 300 0
90 85 336 0
90 -85 -336 0
-90 85 -336 0
-90 -85 336 0
91 85 343 0
91 -85 -343 0
-91 85 -343 0
-91 -85 343 0
92 85 344 0
92 -85 -344 0
-92 85 -344 0
-92 -85 344 0
93 85 351 0
93 -85 -351 0
-93 85 -351 0
-93 -85 351 0
95 94 160 0
95 -94 -160 0
-95 94 -160 0
-95 -94 160 0
96 94 259 0
96 -94 -259 0
-96 94 -259 0
-96 -94 259 0
97 94 262 0
97 -94 -262 0
-97 94 -262 0
-97 -94 262 0
98 94 289 0
98 -94 -289 0
-98 94 -289 0
-98 -94 289 0
99 94 303 0
99 -94 -303 0
-99 94 -303 0
-99 -94 303 0
100 94 322 0
100 -94 -322 0
-100 94 -322 0
-100 -94 322 0
102 101 179 0
102 -101 -179 0
-102 101 -179 0
-102 -101 179 0
103 101 214 0
103 -101 -214 0
-103 101 -214 0
-103 -101 214 0
104 101 324 0
104 -101 -324 0
-104 101 -324 0
-104 -101 324 0
106 105 132 0
106 -105 -132 0
-106 105 -132 0
-106 -105 132 0
107 105 140 0
107 -105 -140 0
-107 105 -140 0
-107 -105 140 0
108 105 196 0
108 -105 -196 0
-108 105 -196 0
-108 -105 196 0
109 105 229 0
109 -105 -229 0
-109 105 -229 0
-109 -105 229 0
110 105 278 0
110 -105 -278 0
-110 105 -278 0
-110 -105 278 0
111 105 324 0
111 -105 -324 0
-111 105 -324 0
-111 -105 324 0
112 105 351 0
112 -105 -351 0
-112 105 -351 0
-112 -105 351 0
114 113 196 0
114 -113 -196 0
-114 113 -196 0
-114 -113 196 0
115 113 267 0
115 -113 -267 0
-115 113 -267 0
-115 -113 267 0
116 113 339 0
116 -113 -339 0
-116 113 -339 0
-116 -113 339 0
118 117 123 0
118 -117 -123 0
-118 117 -123 0
-118 -117 123 0
119 117 262 0
119 -117 -262 0
-119 117 -262 0
-119 -117 262 0
120 117 301 0
120 -117 -301 0
-120 117 -301 0
-120 -117 301 0
121 117 310 0
121 -117 -310 0
-121 117 -310 0
-121 -117 310 0
122 117 334 0
122 -117 -334 0
-122 117 -334 0
-122 -117 334 0
124 123 229 0
124 -123 -229 0
-124 123 -229 0
-124 -123 229 0
125 123 239 0
125 -123 -239 0
-125 123 -239 0
-125 -123 239 0
126 123 262 0
126 -123 -262 0
-126 123 -262 0
-126 -123 262 0
127 123 278 0
127 -123 -278 0
-127 123 -278 0
-127 -123 278 0
128 123 290 0
128 -123 -290 0
-128 123 -290 0
-128 -123 290 0
129 123 299 0
129 -123 -299 0
-129 123 -299 0
-129 -123 299 0
130 123 322 0
130 -123 -322 0
-130 123 -322 0
-130 -123 322 0
131 123 345 0
131 -123 -345 0
-131 123 -345 0
-131 -123 345 0
133 132 214 0
133 -132 -214 0
-133 132 -214 0
-133 -132 214 0
134 132 341 0
134 -132 -341 0
-134 132 -341 0
-134 -132 341 0
136 135 190 0
136 -135 -190 0
-136 135 -190 0
-136 -135 190 0
137 135 262 0
137 -135 -262 0
-137 135 -262 0
-137 -135 262 0
138 135 313 0
138 -135 -313 0
-138 135 -313 0
-138 -135 313 0
139 135 349 0
139 -135 -349 0
-139 135 -349 0
-139 -135 349 0
141 140 184 0
141 -140 -184 0
-141 140 -184 0
-141 -140 184 0
142 140 246 0
142 -140 -246 0
-142 140 -246 0
-142 -140 246 0
143 140 259 0
143 -140 -259 0
-143 140 -259 0
-143 -140 259 0
144 140 274 0
144 -140 -274 0
-144 140 -274 0
-144 -140 274 0
145 140 338 0
145 -140 -338 0
-145 140 -338 0
-145 -140 338 0
146 140 339 0
146 -140 -339 0
-146 140 -339 0
-146 -140 339 0
147 140 345 0
147 -140 -345 0
-147 140 -345 0
-147 -140 345 0
148 140 351 0
148 -140 -351 0
-148 140 -351 0
-148 -140 351 0
150 149 172 0
150 -149 -172 0
-150 149 -172 0
-150 -149 172 0
151 149 216 0
151 -149 -216 0
-151 149 -216 0
-151 -149 216 0
152 149 334 0
152 -149 -334 0
-152 149 -334 0
-152 -149 334 0
153 149 347 0
153 -149 -347 0
-153 149 -347 0
-153 -149 347 0
155 154 196 0
155 -154 -196 0
-155 154 -196 0
-155 -154 196 0
156 154 212 0
156 -154 -212 0
-156 154 -212 0
-156 -154 212 0
157 154 290 0
157 -154 -290 0
-157 154 -290 0
-157 -154 290 0
158 154 301 0
158 -154 -301 0
-158 154 -301 0
-158 -154 301 0
159 154 348 0
159 -154 -348 0
-159 154 -348 0
-159 -154 348 0
161 160 255 0
161 -160 -255 0
-161 160 -255 0
-161 -160 255 0
162 160 324 0
162 -160 -324 0
-162 160 -324 0
-162 -160 324 0
164 163 203 0
164 -163 -203 0
-164 163 -203 0
-164 -163 203 0
165 163 229 0
165 -163 -229 0
-165 163 -229 0
-165 -163 229 0
166 163 267 0
166 -163 -267 0
-166 163 -267 0
-166 -163 267 0
167 163 347 0
167 -163 -347 0
-167 163 -347 0
-167 -163 347 0
169 168 324 0
169 -168 -324 0
-169 168 -324 0
-169 -168 324 0
170 168 333 0
170 -168 -333 0
-170 168 -333 0
-170 -168 333 0
171 168 336 0
171 -168 -336 0
-171 168 -336 0
-171 -168 336 0
173 172 179 0
173 -172 -179 0
-173 172 -179 0
-173 -172 179 0
174 172 196 0
174 -172 -196 0
-174 172 -196 0
-174 -172 196 0
175 172 214 0
175 -172 -214 0
-175 172 -214 0
-175 -172 214 0
176 172 235 0
176 -172 -235 0
-176 172 -235 0
-176 -172 235 0
177 172 289 0
177 -172 -289 0
-177 172 -289 0
-177 -172 289 0
178 172 318 0
178 -172 -318 0
-178 172 -318 0
-178 -172 318 0
181 180 190 0
181 -180 -190 0
-181 180 -190 0
-181 -180 190 0
182 180 293 0
182 -180 -293 0
-182 180 -293 0
-182 -180 293 0
183 180 346 0
183 -180 -346 0
-183 180 -346 0
-183 -180 346 0
185 184 235 0
185 -184 -235 0
-185 184 -235 0
-185 -184 235 0
186 184 238 0
186 -184 -238 0
-186 184 -238 0
-186 -184 238 0
187 184 327 0
187 -184 -327 0
-187 184 -327 0
-187 -184 327 0
189 188 333 0
189 -188 -333 0
-189 188 -333 0
-189 -188 333 0
191 190 214 0
191 -190 -214 0
-191 190 -214 0
-191 -190 214 0
192 190 274 0
192 -190 -274 0
-192 190 -274 0
-192 -190 274 0
193 190 322 0
193 -190 -322 0
-193 190 -322 0
-193 -190 322 0
194 190 327 0
194 -190 -327 0
-194 190 -327 0
-194 -190 327 0
195 190 351 0
195 -190 -351 0
-195 190 -351 0
-195 -190 351 0
197 196 212 0
197 -196 -212 0
-197 196 -212 0
-197 -196 212 0
198 196 296 0
198 -196 -296 0
-198 196 -296 0
-198 -196 296 0
199 196 299 0
199 -196 -299 0
-199 196 -299 0
-199 -196 299 0
200 196 308 0
200 -196 -308 0
-200 196 -308 0
-200 -196 308 0
201 196 320 0
201 -196 -320 0
-201 196 -320 0
-201 -196 320 0
202 196 349 0
202 -196 -349 0
-202 196 -349 0
-202 -196 349 0
204 203 303 0
204 -203 -303 0
-204 203 -303 0
-204 -203 303 0
205 203 308 0
205 -203 -308 0
-205 203 -308 0
-205 -203 308 0
206 203 317 0
206 -203 -317 0
-206 203 -317 0
-206 -203 317 0
207 203 341 0
207 -203 -341 0
-207 203 -341 0
-207 -203 341 0
209 208 223 0
209 -208 -223 0
-209 208 -223 0
-209 -208 223 0
210 208 278 0
210 -208 -278 0
-210 208 -278 0
-210 -208 278 0
211 208 308 0
211 -208 -308 0
-211 208 -308 0
-211 -208 308 0
213 212 310 0
213 -212 -310 0
-213 212 -310 0
-213 -212 310 0
215 214 246 0
215 -214 -246 0
-215 214 -246 0
-215 -214 246 0
217 216 250 0
217 -216 -250 0
-217 216 -250 0
-217 -216 250 0
218 216 290 0
218 -216 -290 0
-218 216 -290 0
-218 -216 290 0
219 216 296 0
219 -216 -296 0
-219 216 -296 0
-219 -216 296 0
220 216 310 0
220 -216 -310 0
-220 216 -310 0
-220 -216 310 0
221 216 331 0
221 -216 -331 0
-221 216 -331 0
-221 -216 331 0
222 216 338 0
222 -216 -338 0
-222 216 -338 0
-222 -216 338 0
224 223 278 0
224 -223 -278 0
-224 223 -278 0
-224 -223 278 0
225 223 301 0
225 -223 -301 0
-225 223 -301 0
-225 -223 301 0
226 223 322 0
226 -223 -322 0
-226 223 -322 0
-226 -223 322 0
227 223 336 0
227 -223 -336 0
-227 223 -336 0
-227 -223 336 0
228 223 350 0
228 -223 -350 0
-228 223 -350 0
-228 -223 350 0
230 229 278 0
230 -229 -278 0
-230 229 -278 0
-230 -229 278 0
231 229 299 0
231 -229 -299 0
-231 229 -299 0
-231 -229 299 0
232 229 301 0
232 -229 -301 0
-232 229 -301 0
-232 -229 301 0
233 229 318 0
233 -229 -318 0
-233 229 -318 0
-233 -229 318 0
234 229 351 0
234 -229 -351 0
-234 229 -351 0
-234 -229 351 0
236 235 274 0
236 -235 -274 0
-236 235 -274 0
-236 -235 274 0
237 235 340 0
237 -235 -340 0
-237 235 -340 0
-237 -235 340 0
240 239 259 0
240 -239 -259 0
-240 239 -259 0
-240 -239 259 0
241 239 267 0
241 -239 -267 0
-241 239 -267 0
-241 -239 267 0
242 239 274 0
242 -239 -274 0
-242 239 -274 0
-242 -239 274 0
243 239 289 0
243 -239 -289 0
-243 239 -289 0
-243 -239 289 0
244 239 338 0
244 -239 -338 0
-244 239 -338 0
-244 -239 338 0
245 239 349 0
245 -239 -349 0
-245 239 -349 0
-245 -239 349 0
247 246 250 0
247 -246 -250 0
-247 246 -250 0
-247 -246 250 0
248 246 315 0
248 -246 -315 0
-248 246 -315 0
-248 -246 315 0
249 246 346 0
249 -246 -346 0
-249 246 -346 0
-249 -246 346 0
251 250 301 0
251 -250 -301 0
-251 250 -301 0
-251 -250 301 0
252 250 303 0
252 -250 -303 0
-252 250 -303 0
-252 -250 303 0
253 250 333 0
253 -250 -333 0
-253 250 -333 0
-253 -250 333 0
254 250 344 0
254 -250 -344 0
-254 250 -344 0
-254 -250 344 0
256 255 299 0
256 -255 -299 0
-256 255 -299 0
-256 -255 299 0
257 255 322 0
257 -255 -322 0
-257 255 -322 0
-257 -255 322 0
258 255 334 0
258 -255 -334 0
-258 255 -334 0
-258 -255 334 0
260 259 296 0
260 -259 -296 0
-260 259 -296 0
-260 -259 296 0
261 259 333 0
261 -259 -333 0
-261 259 -333 0
-261 -259 333 0
263 262 299 0
263 -262 -299 0
-263 262 -299 0
-263 -262 299 0
264 262 318 0
264 -262 -318 0
-264 262 -318 0
-264 -262 318 0
265 262 322 0
265 -262 -322 0
-265 262 -322 0
-265 -262 322 0
266 262 324 0
266 -262 -324 0
-266 262 -324 0
-266 -262 324 0
268 267 310 0
268 -267 -310 0
-268 267 -310 0
-268 -267 310 0
269 267 318 0
269 -267 -318 0
-269 267 -318 0
-269 -267 318 0
270 267 344 0
270 -267 -344 0
-270 267 -344 0
-270 -267 344 0
272 271 290 0
272 -271 -290 0
-272 271 -290 0
-272 -271 290 0
273 271 322 0
273 -271 -322 0
-273 271 -322 0
-273 -271 322 0
276 275 278 0
276 -275 -278 0
-276 275 -278 0
-276 -275 278 0
277 275 338 0
277 -275 -338 0
-277 275 -338 0
-277 -275 338 0
279 278 285 0
279 -278 -285 0
-279 278 -285 0
-279 -278 285 0
280 278 299 0
280 -278 -299 0
-280 278 -299 0
-280 -278 299 0
281 278 303 0
281 -278 -303 0
-281 278 -303 0
-281 -278 303 0
282 278 308 0
282 -278 -308 0
-282 278 -308 0
-282 -278 308 0
283 278 338 0
283 -278 -338 0
-283 278 -338 0
-283 -278 338 0
284 278 339 0
284 -278 -339 0
-284 278 -339 0
-284 -278 339 0
286 285 322 0
286 -285 -322 0
-286 285 -322 0
-286 -285 322 0
287 285 324 0
287 -285 -324 0
-287 285 -324 0
-287 -285 324 0
288 285 331 0
288 -285 -331 0
-288 285 -331 0
-288 -285 331 0
291 290 340 0
291 -290 -340 0
-291 290 -340 0
-291 -290 340 0
292 290 343 0
292 -290 -343 0
-292 290 -343 0
-292 -290 343 0
294 293 301 0
294 -293 -301 0
-294 293 -301 0
-294 -293 301 0
295 293 317 0
295 -293 -317 0
-295 293 -317 0
-295 -293 317 0
297 296 318 0
297 -296 -318 0
-297 296 -318 0
-297 -296 318 0
298 296 324 0
298 -296 -324 0
-298 296 -324 0
-298 -296 324 0
302 301 313 0
302 -301 -313 0
-302 301 -313 0
-302 -301 313 0
304 303 305 0
304 -303 -305 0
-304 303 -305 0
-304 -303 305 0
306 305 310 0
306 -305 -310 0
-306 305 -310 0
-306 -305 310 0
307 305 351 0
307 -305 -351 0
-307 305 -351 0
-307 -305 351 0
309 308 344 0
309 -308 -344 0
-309 308 -344 0
-309 -308 344 0
311 310 322 0
311 -310 -322 0
-311 310 -322 0
-311 -310 322 0
312 310 336 0
312 -310 -336 0
-312 310 -336 0
-312 -310 336 0
314 313 346 0
314 -313 -346 0
-314 313 -346 0
-314 -313 346 0
316 315 331 0
316 -315 -331 0
-316 315 -331 0
-316 -315 331 0
319 318 339 0
319 -318 -339 0
-319 318 -339 0
-319 -318 339 0
321 320 324 0
321 -320 -324 0
-321 320 -324 0
-321 -320 324 0
323 322 340 0
323 -322 -340 0
-323 322 -340 0
-323 -322 340 0
325 324 340 0
325 -324 -340 0
-325 324 -340 0
-325 -324 340 0
326 324 350 0
326 -324 -350 0
-326 324 -350 0
-326 -324 350 0
328 327 331 0
328 -327 -331 0
-328 327 -331 0
-328 -327 331 0
329 327 339 0
329 -327 -339 0
-329 327 -339 0
-329 -327 339 0
330 327 344 0
330 -327 -344 0
-330 327 -344 0
-330 -327 344 0
332 331 334 0
332 -331 -334 0
-332 331 -334 0
-332 -331 334 0
335 334 338 0
335 -334 -338 0
-335 334 -338 0
-335 -334 338 0
337 336 350 0
337 -336 -350 0
-337 336 -350 0
-337 -336 350 0
342 341 345 0
342 -341 -345 0
-342 341 -345 0
-342 -341 345 0
